15 40
25
2 11 4 29
3 2 5 25
7 10 5 11
4 8 6 3
5 9 0 12
2 7 13 5
1 4 0 36
1 6 1 34
5 4 10 36
3 8 12 13
1 3 10 30
5 5 10 0
1 3 10 33
4 12 6 28
2 6 0 28
4 2 2 27
4 11 11 25
2 10 4 1
2 3 0 25
2 11 2 29
4 3 6 0
26 4 0 21
4 8 0 3
2 3 8 25
2 6 11 5
